NAME : Tai100a.2041334.tour
COMMENT : Length = 2041334
COMMENT : Found by LKH [Keld Helsgaun] Tue May  8 14:19:38 2018
TYPE : TOUR
DIMENSION : 111
TOUR_SECTION
1
29
38
36
27
64
65
103
55
59
99
104
60
68
41
76
67
70
72
73
71
102
63
21
35
30
22
105
20
23
24
37
28
33
34
32
25
75
69
74
31
39
26
66
106
77
90
88
95
97
98
96
108
43
46
45
40
42
49
51
52
50
101
110
53
48
47
44
12
5
11
19
7
18
4
3
8
111
54
61
58
56
62
57
109
82
78
87
79
80
85
86
91
16
15
2
14
13
6
10
9
17
100
107
92
89
83
93
84
81
94
-1
EOF
